c Mesh Graph
c 4 Rows, 4 columns, capacities in range [0, 100]
p max 18 44
n 1 s
n 18 t
a 1 5 300
a 1 4 300
a 1 3 300
a 1 2 300
a 2 7 44
a 2 6 27
a 2 9 22
a 3 8 82
a 3 7 92
a 3 6 51
a 4 9 12
a 4 8 84
a 4 7 47
a 5 6 24
a 5 9 76
a 5 8 35
a 6 11 48
a 6 10 33
a 6 13 78
a 7 12 23
a 7 11 52
a 7 10 20
a 8 13 37
a 8 12 79
a 8 11 53
a 9 10 69
a 9 13 59
a 9 12 14
a 10 15 10
a 10 14 98
a 10 17 72
a 11 16 12
a 11 15 51
a 11 14 60
a 12 17 90
a 12 16 24
a 12 15 29
a 13 14 82
a 13 17 75
a 13 16 25
a 14 18 300
a 15 18 300
a 16 18 300
a 17 18 300
